p tw 20 112
0 1
0 2
0 4
0 17
0 13
0 3
0 14
0 6
0 10
0 11
0 15
0 12
0 9
0 8
1 2
1 3
1 4
1 12
1 17
1 8
1 13
1 6
1 10
1 7
2 7
2 8
2 12
2 10
2 14
2 19
2 15
2 6
2 4
2 11
3 4
3 5
3 6
3 9
3 8
3 18
3 14
3 7
3 11
3 13
3 10
4 17
4 8
4 10
4 18
4 12
4 15
4 11
5 6
5 9
5 14
5 18
5 8
5 15
5 19
5 12
6 13
6 16
6 8
6 17
6 9
6 10
6 12
7 8
7 12
7 16
7 17
7 11
7 14
7 15
7 13
8 18
8 17
8 10
8 16
8 19
8 14
9 10
9 11
9 12
9 13
9 14
9 19
9 17
10 11
10 14
10 15
10 12
10 18
10 16
11 12
11 15
12 13
12 17
12 16
13 16
13 15
13 14
13 19
13 18
14 15
14 18
14 17
14 19
15 16
15 19
16 17
17 19
